p cnf 15 64
4 -12 15 0
7 -12 -13 0
-4 -9 -13 0
-11 13 7 0
-8 -12 13 0
-3 -4 -11 0
8 -6 4 0
10 11 -8 0
10 -7 -8 0
-3 5 -4 0
-3 -14 -7 0
-3 13 -12 0
13 9 -15 0
-7 10 -1 0
-11 6 12 0
1 -6 -8 0
-9 -12 -2 0
8 10 -11 0
4 -9 -11 0
14 -15 -11 0
-12 14 13 0
13 12 -1 0
-7 13 -12 0
1 -14 -6 0
10 4 15 0
-4 -3 15 0
1 -12 -11 0
-3 14 -1 0
-9 -3 5 0
-9 -7 -3 0
7 2 -15 0
15 -6 -2 0
-11 -8 12 0
-14 -15 -3 0
-14 -7 6 0
15 8 6 0
-11 -3 -15 0
7 4 -9 0
-6 -11 -3 0
8 13 -5 0
4 -14 2 0
13 -14 -1 0
-3 -14 12 0
8 9 3 0
-7 -11 12 0
-2 -3 1 0
11 -6 -1 0
-8 -15 9 0
15 2 -6 0
-7 -3 -2 0
14 6 -12 0
-3 15 -2 0
13 -12 3 0
5 -13 3 0
-13 2 15 0
4 5 14 0
-3 10 -5 0
-4 12 15 0
-6 9 -7 0
-9 7 -3 0
-14 -3 8 0
11 -1 2 0
-6 -2 -9 0
-8 15 -9 0
